BAYES
20
2 2 2 2 2 2 2 2 2 2 2 2 2 2 2 2 2 2 2 2
20
1 0
1 1
1 2
1 3
1 5
1 6
1 7
1 8
1 9
1 10
1 11
1 12
1 13
1 14
1 15
1 16
1 17
1 18
1 19
3 2 3 4

2
 0.572 0.438
2
 0.217 0.783
2
 0.348 0.652
2
 0.472 0.528
2
 0.572 0.438
2
 0.572 0.438
2
 0.572 0.438
2
 0.572 0.438
2
 0.572 0.438
2
 0.572 0.438
2
 0.572 0.438
2
 0.572 0.438
2
 0.572 0.438
2
 0.572 0.438
2
 0.572 0.438
2
 0.572 0.438
2
 0.572 0.438
2
 0.572 0.438
2
 0.572 0.438
8
 0.424 0.576
 0.568 0.432
 0.552 0.448
 0.663 0.337
